DIMENSION : 3
CAPACITY : 126000
CAPACITY_VOL : 69
NODE_COORD_SECTION
1 23452 56766
2 23136 55261
3 24389 55556
DEMAND_SECTION
1 0 0
2 2290 0
3 1250 0
PICKUP_SECTION
1 0 0
2 0 0
3 0 0
TIME_WINDOW_SECTION
2  0:00 23:30
3  0:00 23:40
STANDTIME_SECTION
2 1
3 1
DEPOT_SECTION
1
-1
EOF
